NAME : tercero8.tsp
TYPE : TOUR
DIMENSION : 8
SOLUTION: 26.77032961426901
TOUR_SECTION
0, 3, 4, 5, 6, 7, 2, 1, 0
1.0 - 0,3
1.0 - 3,4
1.0 - 4,5
1.0 - 5,6
1.0 - 6,7
10.770329614269007 - 7,2
1.0 - 2,1
10.0 - 1,0
EOF